SDVRP instances/custom_instances/p01_9_split0.vrp
NAME:p01_9_split
BEST_KNOWN: 0
COMMENT: 0
DIMENSION: 212
CAPACITY: 160
EDGE_WEIGHT_FORMAT: FUNCTION
EDGE_WEIGHT_TYPE: EXACT_2D
NODE_COORD_SECTION
1 0.00000 0.00000
2 32 40
3 32 40
4 32 40
5 32 40
6 -15 0
7 -15 0
8 -15 0
9 -27 -18
10 -27 -18
11 -27 -18
12 -27 -18
13 -27 -18
14 -27 -18
15 -27 -18
16 36 29
17 36 29
18 36 29
19 36 29
20 44 21
21 44 21
22 44 21
23 44 21
24 44 -45
25 44 -45
26 44 -45
27 44 -45
28 -1 14
29 -1 14
30 -1 14
31 -1 14
32 -1 14
33 -30 -27
34 -30 -27
35 -30 -27
36 -30 -27
37 36 12
38 36 12
39 36 12
40 36 12
41 -20 -42
42 -20 -42
43 -20 -42
44 -20 -42
45 -20 -42
46 -20 -42
47 -24 -22
48 -24 -22
49 -24 -22
50 -24 -22
51 -24 -22
52 -24 -22
53 26 7
54 26 7
55 26 7
56 26 7
57 34 48
58 34 48
59 -47 -14
60 -47 -14
61 -47 -14
62 -47 -14
63 -46 15
64 -46 15
65 -46 15
66 -46 15
67 -46 15
68 -46 15
69 33 2
70 6 -26
71 6 -26
72 6 -26
73 6 -26
74 -13 -4
75 -13 -4
76 -13 -4
77 -13 -4
78 -13 -4
79 -13 -4
80 30 -44
81 30 -44
82 30 -44
83 30 -44
84 30 -44
85 -29 7
86 -29 7
87 -29 7
88 -29 7
89 -29 7
90 -49 17
91 -49 17
92 -49 17
93 -49 17
94 31 -26
95 31 -26
96 31 -26
97 -21 10
98 -21 10
99 -21 10
100 -50 -10
101 -50 -10
102 -20 -25
103 -20 -25
104 -20 -25
105 -20 -25
106 -20 -25
107 -20 -25
108 12 -12
109 12 -12
110 12 -12
111 30 -49
112 30 -49
113 30 -49
114 30 -49
115 21 -36
116 21 -36
117 21 -36
118 -27 -30
119 -27 -30
120 -27 -30
121 -27 -30
122 23 -23
123 23 -23
124 23 -23
125 23 -23
126 23 -23
127 -34 7
128 -34 7
129 -34 7
130 -34 7
131 -34 7
132 36 -41
133 36 -41
134 36 -41
135 36 -41
136 36 -41
137 -45 43
138 -45 43
139 -45 43
140 -45 43
141 -45 43
142 -45 43
143 -32 -3
144 -32 -3
145 -32 -3
146 -32 -3
147 -32 -3
148 45 -38
149 45 -38
150 45 -38
151 45 -38
152 45 -38
153 45 -38
154 47 10
155 47 10
156 47 10
157 47 10
158 47 10
159 26 50
160 26 50
161 26 50
162 26 50
163 -40 -20
164 -40 -20
165 -29 -41
166 -29 -41
167 -29 -41
168 10 29
169 10 29
170 10 29
171 10 29
172 10 29
173 10 29
174 5 29
175 5 29
176 5 29
177 5 29
178 5 29
179 5 29
180 35 -18
181 35 -18
182 -48 -48
183 -48 -48
184 -48 -48
185 -48 -48
186 -48 -48
187 -35 -46
188 -35 -46
189 -35 -46
190 -35 -46
191 -35 -46
192 21 44
193 21 44
194 21 44
195 44 -37
196 44 -37
197 -2 6
198 -2 6
199 -2 6
200 -2 6
201 -2 6
202 46 32
203 46 32
204 46 32
205 46 32
206 -39 -50
207 -39 -50
208 -39 -50
209 38 10
210 38 10
211 38 10
212 38 10
DEMAND_SECTION
1 0
2 32
3 2
4 2
5 1
6 32
7 16
8 8
9 32
10 32
11 8
12 2
13 2
14 2
15 1
16 16
17 2
18 2
19 2
20 32
21 8
22 2
23 1
24 16
25 8
26 2
27 1
28 32
29 2
30 2
31 2
32 1
33 32
34 2
35 2
36 1
37 32
38 16
39 2
40 1
41 32
42 32
43 8
44 2
45 2
46 2
47 32
48 16
49 2
50 2
51 2
52 1
53 32
54 16
55 2
56 1
57 32
58 8
59 32
60 16
61 2
62 2
63 32
64 16
65 2
66 2
67 2
68 1
69 32
70 16
71 8
72 2
73 2
74 32
75 16
76 8
77 2
78 2
79 2
80 32
81 16
82 8
83 2
84 1
85 32
86 16
87 8
88 2
89 1
90 16
91 8
92 2
93 1
94 32
95 32
96 16
97 16
98 8
99 1
100 32
101 2
102 32
103 16
104 2
105 2
106 2
107 1
108 32
109 2
110 1
111 32
112 16
113 2
114 1
115 32
116 32
117 8
118 32
119 16
120 2
121 2
122 32
123 32
124 8
125 2
126 2
127 32
128 32
129 2
130 2
131 1
132 32
133 16
134 2
135 2
136 2
137 32
138 32
139 8
140 2
141 2
142 2
143 32
144 2
145 2
146 2
147 1
148 32
149 16
150 2
151 2
152 2
153 1
154 32
155 8
156 2
157 2
158 1
159 32
160 32
161 2
162 2
163 32
164 8
165 32
166 2
167 1
168 32
169 32
170 2
171 2
172 2
173 1
174 32
175 32
176 8
177 2
178 2
179 2
180 32
181 1
182 32
183 8
184 2
185 2
186 2
187 32
188 16
189 8
190 2
191 1
192 32
193 8
194 2
195 32
196 8
197 32
198 32
199 8
200 2
201 1
202 32
203 8
204 2
205 2
206 32
207 2
208 1
209 32
210 16
211 2
212 2
DEPOT_SECTION
1
-1
EOF