SDVRP instances/custom_instances/p01_9_split0.sol
211 -2 1 3 4 56 57 158 161 160 159 192 193 -5 6 7 -10 12 8 13 9 11 14 78 73 74 75 76 77 -17 18 16 15 204 202 203 201 22 19 21 20 157 156 155 153 154 -38 36 37 39 209 208 210 211 55 54 52 53 -49 47 46 48 50 51 32 33 34 35 117 101 105 104 -67 62 66 63 65 64 89 92 91 90 136 139 138 140 137 141 -68 180 179 95 93 94 -71 70 72 69 41 42 45 44 43 40 164 166 165 103 106 102 -83 81 82 79 80 112 113 111 110 133 132 131 -97 96 98 87 88 86 85 84 128 127 126 130 129 146 145 144 -108 123 125 124 122 121 115 114 116 -109 107 135 134 23 24 25 26 147 150 151 152 149 148 195 194 -120 118 119 185 181 184 183 182 205 207 206 190 187 188 186 189 -142 143 100 99 59 61 60 58 163 162 -173 174 178 177 176 175 27 30 29 28 31 197 198 200 -191 169 172 168 170 171 167 196 199 0 





OBJ=
1702.007
BEST_KNOWN=
0.000